NAME: weight_matrix_6_nodes.tsp
TYPE: TSP
COMMENT: From Prof. Dr. Marcone Souza (UFOP) lecture notes.
DIMENSION: 6
EDGE_WEIGHT_TYPE: EXPLICIT 
EDGE_WEIGHT_FORMAT: FULL_MATRIX 
DISPLAY_DATA_TYPE: NO_DISPLAY 
EDGE_WEIGHT_SECTION
0 2 1 4 9 1
2 0 5 9 7 2
1 5 0 3 8 6
4 9 3 0 2 5
9 7 8 2 0 2
1 2 6 5 2 0